NAME : rnd5_50.tsp.tsp.opt.tour
TYPE : TOUR
DIMENSION : 50
TOUR_SECTION
1
14
12
31
3
17
50
40
22
21
10
44
46
34
5
28
33
49
26
9
42
30
39
7
38
29
16
43
8
48
45
4
6
25
20
2
23
36
41
13
11
35
19
32
15
47
18
24
27
37
-1